40 464 5
0 2 1
0 3 1
0 4 1
0 6 1
0 8 1
0 9 1
0 10 1
0 12 1
0 14 1
0 15 1
0 16 1
0 17 1
0 19 1
0 20 1
0 22 1
0 24 1
0 25 1
0 27 1
0 29 1
0 31 1
0 32 1
0 33 1
0 34 1
0 35 1
0 36 1
0 37 1
0 39 1
1 2 1
1 4 1
1 6 1
1 7 1
1 8 1
1 9 1
1 11 1
1 13 1
1 14 1
1 15 1
1 17 1
1 20 1
1 21 1
1 22 1
1 23 1
1 24 1
1 25 1
1 26 1
1 27 1
1 28 1
1 29 1
1 30 1
1 31 1
1 32 1
1 34 1
1 35 1
1 37 1
1 39 1
2 3 1
2 5 1
2 6 1
2 8 1
2 11 1
2 13 1
2 15 1
2 16 1
2 18 1
2 20 1
2 21 1
2 22 1
2 23 1
2 24 1
2 26 1
2 27 1
2 28 1
2 29 1
2 34 1
2 35 1
2 37 1
2 39 1
3 6 1
3 9 1
3 10 1
3 11 1
3 12 1
3 13 1
3 14 1
3 16 1
3 19 1
3 21 1
3 22 1
3 23 1
3 24 1
3 25 1
3 26 1
3 27 1
3 29 1
3 30 1
3 31 1
3 32 1
3 34 1
3 35 1
3 39 1
4 5 1
4 6 1
4 8 1
4 12 1
4 13 1
4 18 1
4 19 1
4 20 1
4 21 1
4 25 1
4 29 1
4 30 1
4 33 1
4 34 1
4 36 1
4 37 1
5 6 1
5 7 1
5 8 1
5 9 1
5 10 1
5 11 1
5 12 1
5 13 1
5 14 1
5 15 1
5 17 1
5 20 1
5 21 1
5 22 1
5 23 1
5 25 1
5 26 1
5 27 1
5 28 1
5 29 1
5 32 1
5 33 1
5 35 1
5 36 1
5 38 1
6 7 1
6 9 1
6 10 1
6 11 1
6 13 1
6 15 1
6 17 1
6 18 1
6 19 1
6 20 1
6 22 1
6 23 1
6 25 1
6 26 1
6 27 1
6 28 1
6 29 1
6 31 1
6 36 1
6 37 1
6 39 1
7 11 1
7 13 1
7 15 1
7 18 1
7 21 1
7 22 1
7 24 1
7 25 1
7 26 1
7 27 1
7 31 1
7 32 1
7 34 1
7 37 1
7 38 1
7 39 1
8 9 1
8 10 1
8 13 1
8 15 1
8 16 1
8 17 1
8 18 1
8 19 1
8 20 1
8 22 1
8 23 1
8 24 1
8 25 1
8 26 1
8 27 1
8 28 1
8 29 1
8 31 1
8 32 1
8 33 1
8 38 1
8 39 1
9 10 1
9 11 1
9 12 1
9 15 1
9 16 1
9 17 1
9 18 1
9 19 1
9 22 1
9 24 1
9 25 1
9 27 1
9 28 1
9 30 1
9 31 1
9 33 1
9 34 1
9 36 1
9 38 1
9 39 1
10 11 1
10 15 1
10 16 1
10 18 1
10 19 1
10 21 1
10 23 1
10 27 1
10 28 1
10 30 1
10 31 1
10 34 1
10 35 1
10 38 1
10 39 1
11 15 1
11 20 1
11 22 1
11 23 1
11 24 1
11 25 1
11 30 1
11 32 1
11 33 1
11 35 1
11 37 1
12 14 1
12 15 1
12 16 1
12 18 1
12 20 1
12 23 1
12 24 1
12 25 1
12 26 1
12 27 1
12 28 1
12 30 1
12 35 1
12 36 1
12 37 1
12 38 1
12 39 1
13 14 1
13 15 1
13 16 1
13 18 1
13 23 1
13 29 1
13 30 1
13 31 1
13 32 1
13 35 1
13 37 1
13 39 1
14 15 1
14 16 1
14 17 1
14 19 1
14 21 1
14 23 1
14 24 1
14 26 1
14 27 1
14 30 1
14 32 1
14 35 1
14 37 1
14 39 1
15 17 1
15 18 1
15 19 1
15 21 1
15 22 1
15 24 1
15 26 1
15 28 1
15 31 1
15 33 1
15 34 1
15 37 1
15 39 1
16 17 1
16 18 1
16 19 1
16 20 1
16 21 1
16 23 1
16 25 1
16 26 1
16 27 1
16 32 1
16 34 1
16 36 1
17 18 1
17 19 1
17 21 1
17 23 1
17 24 1
17 25 1
17 26 1
17 28 1
17 29 1
17 30 1
17 32 1
17 33 1
17 37 1
17 38 1
17 39 1
18 19 1
18 20 1
18 21 1
18 22 1
18 23 1
18 25 1
18 26 1
18 28 1
18 30 1
18 32 1
18 33 1
18 34 1
18 35 1
18 36 1
18 38 1
19 20 1
19 24 1
19 25 1
19 26 1
19 27 1
19 29 1
19 31 1
19 33 1
19 34 1
19 36 1
19 37 1
19 38 1
19 39 1
20 21 1
20 23 1
20 24 1
20 26 1
20 27 1
20 31 1
20 32 1
20 34 1
20 36 1
20 37 1
21 22 1
21 24 1
21 25 1
21 26 1
21 27 1
21 29 1
21 32 1
21 33 1
21 35 1
21 36 1
21 37 1
21 38 1
21 39 1
22 25 1
22 26 1
22 28 1
22 31 1
22 32 1
22 33 1
22 34 1
22 35 1
22 37 1
22 38 1
22 39 1
23 28 1
23 29 1
23 30 1
23 32 1
23 34 1
23 35 1
23 36 1
23 37 1
24 26 1
24 28 1
24 29 1
24 33 1
24 35 1
24 36 1
25 26 1
25 27 1
25 29 1
25 32 1
25 33 1
25 34 1
25 39 1
26 27 1
26 28 1
26 29 1
26 30 1
26 31 1
26 34 1
26 35 1
26 39 1
27 29 1
27 32 1
27 34 1
27 35 1
27 36 1
27 38 1
28 30 1
28 31 1
28 35 1
28 36 1
28 37 1
28 38 1
29 30 1
29 31 1
29 32 1
29 34 1
29 36 1
29 37 1
29 38 1
29 39 1
30 33 1
30 35 1
30 36 1
30 37 1
30 38 1
31 36 1
31 38 1
32 33 1
32 35 1
32 38 1
33 35 1
33 36 1
33 37 1
33 38 1
34 36 1
34 37 1
34 39 1
35 36 1
35 37 1
35 38 1
35 39 1
36 39 1
37 38 1
38 39 1
5 14 28 36 39